# Objective value = 308.124428572963
x[0] 1
x[1] 0
x[2] 0
x[3] 9.9999990147650530e-01
x[4] 1
x[5] 1
x[6] 1
x[7] 0
x[8] 1
x[9] 0
x[10] 0
x[11] 0
x[12] 0
x[13] 0
x[14] 1.0042423368700084e-07
x[15] 1
x[16] 0
x[17] 1
x[18] 1
x[19] 1
x[20] 1
x[21] 0
x[22] 0
x[23] 0
x[24] 0
x[25] 0
x[26] 0
x[27] 1.0172977330169e-07
x[28] 1.0174474451475172e-07
x[29] 0
x[30] 1
x[31] 1
x[32] 0
x[33] 1
x[34] 0
x[35] 0
x[36] 0
x[37] 1
x[38] 0
x[39] 0
x[40] 9.9999979961967722e-01
x[41] 1
x[42] 9.9999979628634372e-01
x[43] 0
x[44] 0
x[45] 1
x[46] 0
x[47] 1
x[48] 0
x[49] 1
x[50] 1
x[51] 2.0355309421597121e-07
x[52] 0
x[53] 1
x[54] 1
x[55] 1
x[56] 1
x[57] 0
x[58] 0
x[59] 0
x[60] 1
x[61] 9.9999979961967711e-01
x[62] 0
x[63] 0
x[64] 1
x[65] 0
x[66] 1.0132553792025610e-07
x[67] 0
x[68] 0
x[69] 1
x[70] 0
x[71] 9.9999989814317192e-01
x[72] 0
x[73] 0
x[74] 0
x[75] 1
x[76] 2.0298894582055303e-07
x[77] 1.0175274190404779e-07
x[78] 1
x[79] 0
x[80] 9.9999980128634369e-01
x[81] 1
x[82] 0
x[83] 1
x[84] 1
x[85] 1
x[86] 1
x[87] 1
x[88] 1
x[89] 0
x[90] 0
x[91] 1
x[92] 9.9999979961967711e-01
x[93] 1
x[94] 0
x[95] 1
x[96] 1.9678327814562712e-07
x[97] 0
x[98] 0
x[99] 0
x[100] 1
x[101] 1
x[102] 1
x[103] 1
x[104] 1
x[105] 0
x[106] 0
x[107] 0
x[108] 9.9999990147650530e-01
x[109] 1
x[110] 9.9999980118532328e-01
x[111] 0
x[112] 0
x[113] 6.6195352322163437e-07
x[114] 9.9999979628634372e-01
x[115] 1
x[116] 0
x[117] 1
x[118] 0
x[119] 0
x[120] 1
x[121] 1
x[122] 1
x[123] 1
x[124] 1
x[125] 1
x[126] 1
x[127] 0
x[128] 9.9999979961967722e-01
x[129] 1
x[130] 0
x[131] 0
x[132] 1
x[133] 0
x[134] 0
x[135] 1
x[136] 2.0322913681410731e-07
x[137] 1
x[138] 1
x[139] 1
x[140] 0
x[141] 1
x[142] 9.9999989814317192e-01
x[143] 0
x[144] 0
x[145] 2.0355049731059046e-07
x[146] 0
x[147] 9.9999969942951572e-01
x[148] 1
x[149] 1
x[150] 1
x[151] 0
x[152] 1
x[153] 1
x[154] 0
x[155] 0
x[156] 0
x[157] 1
x[158] 0
x[159] 2.0363728586364857e-07
x[160] 1
x[161] 1
x[162] 1.0178833174462891e-07
x[163] 1
x[164] 0
x[165] 0
x[166] 0
x[167] 1
x[168] 0
x[169] 1
x[170] 0
x[171] 1.0132889724601571e-07
x[172] 1
x[173] 0
x[174] 0
x[175] 0
x[176] 0
x[177] 1
x[178] 0
x[179] 0
x[180] 0
x[181] 1
x[182] 0
x[183] 1
x[184] 0
x[185] 0
x[186] 0
x[187] 0
x[188] 1
x[189] 1
x[190] 0
x[191] 1.0000001017222091e+00
x[192] 1
x[193] 1
x[194] 0
x[195] 0
x[196] 1
x[197] 1
x[198] 0
x[199] 0
x[200] 0
x[201] 0
x[202] 2.0360973722024014e-07
x[203] 1
x[204] 1
x[205] 0
x[206] 0
x[207] 1
x[208] 0
x[209] 9.9999990147650530e-01
x[210] 0
x[211] 0
x[212] 1
x[213] 0
x[214] 0
x[215] 1
x[216] 1
x[217] 1
x[218] 1
x[219] 1
x[220] 0
x[221] 1
x[222] 1
x[223] 1
x[224] 1
x[225] 1
x[226] 0
x[227] 0
x[228] 2.0331233451841885e-07
x[229] 9.9999990147650530e-01
x[230] 0
x[231] 1
x[232] 0
x[233] 1
x[234] 9.9999990314317189e-01
x[235] 0
x[236] 1.0173153080374920e-07
x[237] 1
x[238] 1
x[239] 0
x[240] 1
x[241] 1
x[242] 0
x[243] 1
x[244] 0
x[245] 0
x[246] 1
x[247] 1
x[248] 1
x[249] 1
x[250] 1
x[251] 0
x[252] 1
x[253] 1
x[254] 0
x[255] 0
x[256] 0
x[257] 1
x[258] 1.0175535260028688e-07
x[259] 0
x[260] 0
x[261] 1
x[262] 0
x[263] 0
x[264] 0
x[265] 1.0140248798673665e-07
x[266] 0
x[267] 1
x[268] 1
x[269] 1
x[270] 1
x[271] 1
x[272] 1
x[273] 1
x[274] 0
x[275] 0
x[276] 1
x[277] 0
x[278] 1
x[279] 0
x[280] 1
x[281] 0
x[282] 0
x[283] 2.0362233089814437e-07
x[284] 0
x[285] 1.0103162656558322e-07
x[286] 1
x[287] 1
x[288] 0
x[289] 0
x[290] 1
x[291] 1.0000001017317923e+00
x[292] 1
x[293] 1
x[294] 1
x[295] 0
x[296] 0
x[297] 1
x[298] 0
x[299] 1.0177453740419317e-07
x[300] 1
x[301] 1
x[302] 1
x[303] 0
x[304] 1
x[305] 0
x[306] 1.0174521118298862e-07
x[307] 0
x[308] 0
x[309] 1
x[310] 1
x[311] 1
x[312] 0
x[313] 9.9999975035792954e-01
x[314] 0
x[315] 0
x[316] 0
x[317] 2.0362274670548773e-07
x[318] 0
x[319] 1
x[320] 0
x[321] 0
x[322] 0
x[323] 0
x[324] 1
x[325] 1
x[326] 1
x[327] 0
x[328] 1
x[329] 0
x[330] 1
x[331] 1
x[332] 1
x[333] 0
x[334] 0
x[335] 0
x[336] 1
x[337] 2.0363890945764415e-07
x[338] 1
x[339] 0
x[340] 0
x[341] 1
x[342] 0
x[343] 1
x[344] 9.9999979961967711e-01
x[345] 1
x[346] 0
x[347] 9.9999990314317189e-01
x[348] 1
x[349] 0
x[350] 1
x[351] 9.9999990314317189e-01
x[352] 1.0147740305570660e-07
x[353] 1
x[354] 1
x[355] 1
x[356] 0
x[357] 1
x[358] 1
x[359] 0
x[360] 1
x[361] 1
x[362] 0
x[363] 2.5238944626618640e-07
x[364] 0
x[365] 9.9999979961967711e-01
x[366] 0
x[367] 0
x[368] 0
x[369] 0
x[370] 0
x[371] 0
x[372] 0
x[373] 1
x[374] 1
x[375] 2.03629507498649e-07
x[376] 0
x[377] 1
x[378] 0
x[379] 2.0313041613096765e-07
x[380] 0
x[381] 1
x[382] 1
x[383] 1
x[384] 1
x[385] 0
x[386] 1
x[387] 0
x[388] 0
x[389] 1
x[390] 1
x[391] 1
x[392] 0
x[393] 2.0362403689663268e-07
x[394] 0
x[395] 1
x[396] 0
x[397] 2.0358831099139878e-07
x[398] 0
x[399] 0
x[400] 2.0364282088285453e-07
x[401] 0
x[402] 0
x[403] 2.0282511437549289e-07
x[404] 0
x[405] 0
x[406] 0
x[407] 1
x[408] 1
x[409] 0
x[410] 1
x[411] 1
x[412] 0
x[413] 1
x[414] 1
x[415] 0
x[416] 1
x[417] 1.0169953980447137e-07
x[418] 0
x[419] 1
x[420] 9.9999989814317192e-01
x[421] 1
x[422] 0
x[423] 0
x[424] 1
x[425] 1.0173812437851991e-07
x[426] 0
x[427] 0
x[428] 1.0178664269295733e-07
x[429] 1
x[430] 0
x[431] 1
x[432] 1.0073014733534337e-07
x[433] 1
x[434] 0
x[435] 0
x[436] 0
x[437] 1
x[438] 9.9999990147650530e-01
x[439] 1.0178214751608915e-07
x[440] 0
x[441] 1
x[442] 0
x[443] 1
x[444] 9.9999979969604746e-01
x[445] 2.0361353895175407e-07
x[446] 0
x[447] 1
x[448] 0
x[449] 0
x[450] 1
x[451] 1
x[452] 0
x[453] 1
x[454] 0
x[455] 0
x[456] 0
x[457] 0
x[458] 1
x[459] 1
x[460] 1
x[461] 1.0000001017279676e+00
x[462] 0
x[463] 0
x[464] 1
x[465] 1
x[466] 1
x[467] 0
x[468] 1
x[469] 0
x[470] 1
x[471] 1
x[472] 0
x[473] 1
x[474] 0
x[475] 1
x[476] 0
x[477] 0
x[478] 1
x[479] 2.0364186012746166e-07
x[480] 1
x[481] 0
x[482] 0
x[483] 9.9999990314317189e-01
x[484] 0
x[485] 0
x[486] 2.0363998089056255e-07
x[487] 0
x[488] 0
x[489] 1
x[490] 0
x[491] 1
x[492] 1
x[493] 2.0356442283216038e-07
x[494] 1.0170996544192113e-07
x[495] 4.06532088905583e-07
x[496] 1.0173879687579202e-07
x[497] 0
x[498] 1
x[499] 1
x[500] 0
x[501] 1
x[502] 1
x[503] -9.8394634228664787e-08
x[504] 0
x[505] 1
x[506] 0
x[507] 1
x[508] 1
x[509] 0
x[510] 9.9999989814317192e-01
x[511] 1
x[512] 1
x[513] 1
x[514] 1
x[515] 9.9999979961967722e-01
x[516] 1
x[517] 0
x[518] 0
x[519] 0
x[520] 0
x[521] 9.9999989814317192e-01
x[522] 0
x[523] 1
x[524] 1
x[525] 0
x[526] 1
x[527] 1
x[528] 0
x[529] 1
x[530] 0
x[531] 1
x[532] 1
x[533] 0
x[534] 1
x[535] 1.0103245338105164e-07
x[536] 9.9999980128634369e-01
x[537] 0
x[538] 0
x[539] 1.0178072563530676e-07
x[540] 0
x[541] 0
x[542] 1
x[543] 1
x[544] 0
x[545] 0
x[546] 0
x[547] 0
x[548] 0
x[549] 1
x[550] 9.9999990147650530e-01
x[551] 9.9999990155118579e-01
x[552] 0
x[553] 1
x[554] 0
x[555] 0
x[556] 0
x[557] 1
x[558] 0
x[559] 0
x[560] 0
x[561] 1
x[562] 0
x[563] 1
x[564] 0
x[565] 0
x[566] 1
x[567] 9.9999990155260765e-01
x[568] 1
x[569] 0
x[570] 1
x[571] 1
x[572] 1.0173704097970679e-07
x[573] 1
x[574] 0
x[575] 0
x[576] 0
x[577] 9.9999989814317236e-01
x[578] 0
x[579] 1
x[580] 9.9999974869126307e-01
x[581] 0
x[582] 1
x[583] 0
x[584] 1
x[585] 0
x[586] 1
x[587] 1
x[588] 1
x[589] 1.2720449993370656e-07
x[590] 1
x[591] 0
x[592] 0
x[593] 0
x[594] 0
x[595] 9.9999989814317192e-01
x[596] 0
x[597] 0
x[598] 1
x[599] 0
x[600] 0
x[601] 0
x[602] 1
x[603] 1
x[604] 1
x[605] 1
x[606] 1
x[607] 0
x[608] 1
x[609] 1
x[610] 1
x[611] 0
x[612] 1
x[613] 1
x[614] 0
x[615] 0
x[616] 1
x[617] 1
x[618] 1
x[619] 1
x[620] 1
x[621] 0
x[622] 1
x[623] 1
x[624] 0
x[625] 1
x[626] 0
x[627] 1
x[628] 0
x[629] 1
x[630] 0
x[631] 0
x[632] 0
x[633] 1
x[634] 0
x[635] 0
x[636] 0
x[637] 1
x[638] 0
x[639] 0
x[640] 0
x[641] 1
x[642] 1
x[643] 1
x[644] 1
x[645] 0
x[646] 0
x[647] 1
x[648] 0
x[649] 0
x[650] 1
x[651] 0
x[652] 0
x[653] 0
x[654] 1
x[655] 0
x[656] 0
x[657] 0
x[658] 0
x[659] 2.0351233065839515e-07
x[660] 1
x[661] 1
x[662] 0
x[663] 0
x[664] 0
x[665] 1
x[666] 0
x[667] 1
x[668] 0
x[669] 0
x[670] 0
x[671] 1
x[672] 0
x[673] 0
x[674] 1
x[675] 1
x[676] 1
x[677] 1
x[678] 0
x[679] 0
x[680] 0
x[681] 9.9999979961967722e-01
x[682] 0
x[683] 0
x[684] 1
x[685] 1
x[686] 0
x[687] 0
x[688] 1
x[689] 0
x[690] 9.9999990304215136e-01
x[691] 0
x[692] 1
x[693] 0
x[694] 1
x[695] 0
x[696] 1
x[697] 1
x[698] 0
x[699] 1
x[700] 1
x[701] 1
x[702] 0
x[703] 1
x[704] 0
x[705] 0
x[706] 1
x[707] 0
x[708] 1
x[709] 0
x[710] 0
x[711] 0
x[712] 0
x[713] 0
x[714] 1
x[715] 1
x[716] 0
x[717] 0
x[718] 0
x[719] 0
x[720] 1
x[721] 0
x[722] 1
x[723] 1
x[724] 0
x[725] 0
x[726] 0
x[727] 0
x[728] 1
x[729] 1
x[730] 0
x[731] 1
x[732] 1
x[733] 1
x[734] 1
x[735] 0
x[736] 1
x[737] 1
x[738] 2.0356341805551651e-07
x[739] 0
x[740] 1
x[741] 0
x[742] 1
x[743] 0
x[744] 1
x[745] 1
x[746] 0
x[747] 1
x[748] 0
x[749] 1
x[750] 1
x[751] 2.0326523742061989e-07
x[752] 1
x[753] 0
x[754] 9.9999979628634372e-01
x[755] 0
x[756] 1
x[757] 2.0363383692728304e-07
x[758] 0
x[759] 0
x[760] 1.0176376466586721e-07
x[761] 1
x[762] 1
x[763] 0
x[764] 1
x[765] 0
x[766] 1
x[767] 1
x[768] 0
x[769] 1
x[770] 1
x[771] 1.0168447307580036e-07
x[772] 0
x[773] 0
x[774] 1
x[775] 0
x[776] 0
x[777] 0
x[778] 1
x[779] 1
x[780] 1
x[781] 0
x[782] 1
x[783] 1
x[784] 0
x[785] 1
x[786] 1
x[787] 1
x[788] 1
x[789] 1
x[790] 9.9999980128634369e-01
x[791] 1
x[792] 1
x[793] 1
x[794] 0
x[795] 0
x[796] 1
x[797] 0
x[798] 1
x[799] 1
x[800] 1
x[801] 1
x[802] 9.9999990304215136e-01
x[803] 0
x[804] 1
x[805] 1
x[806] 9.9999979628634372e-01
x[807] 1
x[808] 0
x[809] 0
x[810] 0
x[811] 0
x[812] 1
x[813] 0
x[814] 0
x[815] 0
x[816] 1
x[817] 9.9999989814317236e-01
x[818] 0
x[819] 0
x[820] 0
x[821] 0
x[822] 0
x[823] 0
x[824] 9.9999979961967711e-01
x[825] 1
x[826] 1
x[827] 0
x[828] 0
x[829] 1
x[830] 1
x[831] 1
x[832] 2.0332260774266094e-07
x[833] 9.9999934293061632e-01
x[834] 1
x[835] 1.0000001017804860e+00
x[836] 0
x[837] 1
x[838] 0
x[839] 0
x[840] 0
x[841] 0
x[842] 1
x[843] 0
x[844] 1
x[845] 1
x[846] 0
x[847] 1
x[848] 1
x[849] 0
x[850] 0
x[851] 0
x[852] 0
x[853] 0
x[854] 1
x[855] 1.0175359266941905e-07
x[856] 0
x[857] 9.9999979961967722e-01
x[858] 1
x[859] 1
x[860] 1
x[861] 1.0177770657658982e-07
x[862] 1
x[863] 1.0176685909061621e-07
x[864] 0
x[865] 0
x[866] 0
x[867] 0
x[868] 1
x[869] 1
x[870] 0
x[871] 0
x[872] 1
x[873] 1
x[874] 0
x[875] 1
x[876] 1
x[877] 1
x[878] 0
x[879] 1
x[880] 0
x[881] 1
x[882] 0
x[883] 1
x[884] 1
x[885] 0
x[886] 1
x[887] 0
x[888] 1.0158378968660566e-07
x[889] 0
x[890] 1
x[891] 1.0174717696331127e-07
x[892] 0
x[893] 0
x[894] 1
x[895] 0
x[896] 9.9999989814317192e-01
x[897] 1
x[898] -9.8447152669415714e-08
x[899] 0
x[900] 1
x[901] 1
x[902] 1
x[903] 1
x[904] 1
x[905] 0
x[906] 1
x[907] 1
x[908] 9.9999989814317192e-01
x[909] 9.9999979971100239e-01
x[910] 0
x[911] 9.9999990315376830e-01
x[912] 1.0174757245989921e-07
x[913] 0
x[914] 1
x[915] 0
x[916] 1
x[917] 2.0359018703523782e-07
x[918] 0
x[919] 0
x[920] 0
x[921] 1
x[922] 0
x[923] 1
x[924] 1
x[925] 1
x[926] 0
x[927] 0
x[928] 9.9999990158059138e-01
x[929] 0
x[930] 0
x[931] 1
x[932] 0
x[933] 1
x[934] 1.01092264998541e-07
x[935] 1
x[936] 1
x[937] 1.0104346438797118e-07
x[938] 0
x[939] 0
x[940] 0
x[941] 0
x[942] 1
x[943] 0
x[944] 9.9999990185593024e-01
x[945] 0
x[946] 0
x[947] 0
x[948] 1.0175309303179808e-07
x[949] 0
x[950] 0
x[951] 0
x[952] 1.0172725669232265e-07
x[953] 1
x[954] 0
x[955] 0
x[956] 2.0364413602702809e-07
x[957] 1
x[958] 0
x[959] 1
x[960] 1
x[961] 1
x[962] 1
x[963] 0
x[964] 0
x[965] 1
x[966] 1
x[967] 0
x[968] 1
x[969] 1
x[970] 0
x[971] -1.0185682808305785e-07
x[972] 1
x[973] 1
x[974] 1
x[975] 0
x[976] 0
x[977] 1.0074162154333351e-07
x[978] 1
x[979] 0
x[980] 1
x[981] 9.9999990112806292e-01
x[982] 0
x[983] 1
x[984] 1
x[985] 9.9999980128634380e-01
x[986] 1
x[987] 2.0362769648838012e-07
x[988] 0
x[989] 0
x[990] 0
x[991] 1.5186915146093062e-07
x[992] 1
x[993] 9.9999989977833825e-01
x[994] 9.9999990159629237e-01
x[995] 1
x[996] 0
x[997] 1
x[998] 0
x[999] 1
